p cnf 511 1268              
-11 -10 -31 0
31 -35 0
-10 32 0
-11 32 0
10 11 -32 0
-32 -12 -33 0
33 -35 0
12 32 -34 0
34 -35 0
-14 -13 -36 0
36 -38 0
13 14 -37 0
37 -38 0
38 -63 0
-16 -15 -39 0
39 -41 0
15 16 -40 0
40 -41 0
41 -63 0
-18 -17 -42 0
42 -44 0
17 18 -43 0
43 -44 0
44 -63 0
-20 -19 -45 0
45 -47 0
19 20 -46 0
46 -47 0
47 -63 0
-22 -21 -48 0
48 -50 0
21 22 -49 0
49 -50 0
50 -63 0
-24 -23 -51 0
51 -53 0
23 24 -52 0
52 -53 0
53 -63 0
-26 -25 -54 0
54 -56 0
25 26 -55 0
55 -56 0
56 -63 0
-28 -27 -57 0
57 -59 0
27 28 -58 0
58 -59 0
59 -63 0
-30 -29 -60 0
60 -62 0
29 30 -61 0
61 -62 0
62 -63 0
19 94 0
-25 94 0
20 95 0
-26 95 0
21 96 0
-27 96 0
22 97 0
-28 97 0
23 98 0
-29 98 0
24 99 0
-30 99 0
-94 -95 -96 -97 -98 -99 100 0
25 101 0
-19 101 0
26 102 0
-20 102 0
27 103 0
-21 103 0
28 104 0
-22 104 0
29 105 0
-23 105 0
30 106 0
-24 106 0
-101 -102 -103 -104 -105 -106 107 0
-100 -107 108 0
-108 -109 0
13 79 0
-25 79 0
14 80 0
-26 80 0
15 81 0
-27 81 0
16 82 0
-28 82 0
17 83 0
-29 83 0
18 84 0
-30 84 0
-79 -80 -81 -82 -83 -84 85 0
25 86 0
-13 86 0
26 87 0
-14 87 0
27 88 0
-15 88 0
28 89 0
-16 89 0
29 90 0
-17 90 0
30 91 0
-18 91 0
-86 -87 -88 -89 -90 -91 92 0
-85 -92 93 0
-93 -109 0
13 64 0
-19 64 0
14 65 0
-20 65 0
15 66 0
-21 66 0
16 67 0
-22 67 0
17 68 0
-23 68 0
18 69 0
-24 69 0
-64 -65 -66 -67 -68 -69 70 0
19 71 0
-13 71 0
20 72 0
-14 72 0
21 73 0
-15 73 0
22 74 0
-16 74 0
23 75 0
-17 75 0
24 76 0
-18 76 0
-71 -72 -73 -74 -75 -76 77 0
-70 -77 78 0
-78 -109 0
-13 -110 0
14 -110 0
13 -14 110 0
-1 110 -111 0
1 -110 -111 0
110 -110 -111 0
111 -128 0
-15 -112 0
16 -112 0
15 -16 112 0
-2 112 -113 0
2 -112 -113 0
112 -112 -113 0
113 -128 0
-17 -114 0
18 -114 0
17 -18 114 0
-3 114 -115 0
3 -114 -115 0
114 -114 -115 0
115 -128 0
-19 -116 0
20 -116 0
19 -20 116 0
-4 116 -117 0
4 -116 -117 0
116 -116 -117 0
117 -128 0
-21 -118 0
22 -118 0
21 -22 118 0
-5 118 -119 0
5 -118 -119 0
118 -118 -119 0
119 -128 0
-23 -120 0
24 -120 0
23 -24 120 0
-6 120 -121 0
6 -120 -121 0
120 -120 -121 0
121 -128 0
-25 -122 0
26 -122 0
25 -26 122 0
-7 122 -123 0
7 -122 -123 0
122 -122 -123 0
123 -128 0
-27 -124 0
28 -124 0
27 -28 124 0
-8 124 -125 0
8 -124 -125 0
124 -124 -125 0
125 -128 0
-29 -126 0
30 -126 0
29 -30 126 0
-9 126 -127 0
9 -126 -127 0
126 -126 -127 0
127 -128 0
12 -507 0
-17 -459 0
-15 -459 0
-13 -459 0
17 15 13 459 0
459 -461 0
14 -460 0
16 -460 0
18 -460 0
-14 -16 -18 460 0
460 -461 0
-459 -460 461 0
-461 468 0
-23 -462 0
-21 -462 0
-19 -462 0
23 21 19 462 0
462 -464 0
20 -463 0
22 -463 0
24 -463 0
-20 -22 -24 463 0
463 -464 0
-462 -463 464 0
-464 468 0
-29 -465 0
-27 -465 0
-25 -465 0
29 27 25 465 0
465 -467 0
26 -466 0
28 -466 0
30 -466 0
-26 -28 -30 466 0
466 -467 0
-465 -466 467 0
-467 468 0
461 464 467 -468 0
468 -482 0
2 -470 0
461 -470 0
-2 -461 470 0
-470 479 0
5 -473 0
464 -473 0
-5 -464 473 0
-473 479 0
8 -476 0
467 -476 0
-8 -467 476 0
-476 479 0
470 473 476 -479 0
479 -482 0
-468 -479 482 0
482 484 0
468 -481 0
1 -469 0
461 -469 0
-1 -461 469 0
-469 478 0
4 -472 0
464 -472 0
-4 -464 472 0
-472 478 0
7 -475 0
467 -475 0
-7 -467 475 0
-475 478 0
469 472 475 -478 0
478 -481 0
-468 -478 481 0
481 484 0
-482 -481 -484 0
484 -488 0
-481 485 0
-482 485 0
481 482 -485 0
485 486 0
468 -483 0
3 -471 0
461 -471 0
-3 -461 471 0
-471 480 0
6 -474 0
464 -474 0
-6 -464 474 0
-474 480 0
9 -477 0
467 -477 0
-9 -467 477 0
-477 480 0
471 474 477 -480 0
480 -483 0
-468 -480 483 0
483 486 0
-485 -483 -486 0
486 -488 0
-483 487 0
-485 487 0
483 485 -487 0
487 -488 0
-484 -486 -487 488 0
11 -495 0
-478 -489 0
468 -489 0
489 -492 0
-479 -490 0
468 -490 0
490 -492 0
-480 -491 0
468 -491 0
491 -492 0
487 492 -493 0
493 -495 0
-488 482 -498 0
488 495 -498 0
482 495 -498 0
498 -507 0
12 -506 0
10 -494 0
493 -494 0
-488 481 -497 0
488 494 -497 0
481 494 -497 0
497 -506 0
11 -505 0
12 -496 0
493 -496 0
-488 483 -499 0
488 496 -499 0
483 496 -499 0
499 -505 0
11 -503 0
497 -503 0
10 -502 0
499 -502 0
10 -501 0
498 -501 0
507 506 505 503 502 501 509 0
12 -456 0
-18 -408 0
-15 -408 0
-13 -408 0
18 15 13 408 0
408 -410 0
14 -409 0
16 -409 0
17 -409 0
-14 -16 -17 409 0
409 -410 0
-408 -409 410 0
-410 417 0
-24 -411 0
-21 -411 0
-19 -411 0
24 21 19 411 0
411 -413 0
20 -412 0
22 -412 0
23 -412 0
-20 -22 -23 412 0
412 -413 0
-411 -412 413 0
-413 417 0
-30 -414 0
-27 -414 0
-25 -414 0
30 27 25 414 0
414 -416 0
26 -415 0
28 -415 0
29 -415 0
-26 -28 -29 415 0
415 -416 0
-414 -415 416 0
-416 417 0
410 413 416 -417 0
417 -431 0
2 -419 0
410 -419 0
-2 -410 419 0
-419 428 0
5 -422 0
413 -422 0
-5 -413 422 0
-422 428 0
8 -425 0
416 -425 0
-8 -416 425 0
-425 428 0
419 422 425 -428 0
428 -431 0
-417 -428 431 0
431 433 0
417 -430 0
1 -418 0
410 -418 0
-1 -410 418 0
-418 427 0
4 -421 0
413 -421 0
-4 -413 421 0
-421 427 0
7 -424 0
416 -424 0
-7 -416 424 0
-424 427 0
418 421 424 -427 0
427 -430 0
-417 -427 430 0
430 433 0
-431 -430 -433 0
433 -437 0
-430 434 0
-431 434 0
430 431 -434 0
434 435 0
417 -432 0
3 -420 0
410 -420 0
-3 -410 420 0
-420 429 0
6 -423 0
413 -423 0
-6 -413 423 0
-423 429 0
9 -426 0
416 -426 0
-9 -416 426 0
-426 429 0
420 423 426 -429 0
429 -432 0
-417 -429 432 0
432 435 0
-434 -432 -435 0
435 -437 0
-432 436 0
-434 436 0
432 434 -436 0
436 -437 0
-433 -435 -436 437 0
11 -444 0
-427 -438 0
417 -438 0
438 -441 0
-428 -439 0
417 -439 0
439 -441 0
-429 -440 0
417 -440 0
440 -441 0
436 441 -442 0
442 -444 0
-437 431 -447 0
437 444 -447 0
431 444 -447 0
447 -456 0
12 -455 0
10 -443 0
442 -443 0
-437 430 -446 0
437 443 -446 0
430 443 -446 0
446 -455 0
11 -454 0
12 -445 0
442 -445 0
-437 432 -448 0
437 445 -448 0
432 445 -448 0
448 -454 0
11 -452 0
446 -452 0
10 -451 0
448 -451 0
10 -450 0
447 -450 0
456 455 454 452 451 450 458 0
12 -405 0
-17 -357 0
-16 -357 0
-13 -357 0
17 16 13 357 0
357 -359 0
14 -358 0
15 -358 0
18 -358 0
-14 -15 -18 358 0
358 -359 0
-357 -358 359 0
-359 366 0
-23 -360 0
-22 -360 0
-19 -360 0
23 22 19 360 0
360 -362 0
20 -361 0
21 -361 0
24 -361 0
-20 -21 -24 361 0
361 -362 0
-360 -361 362 0
-362 366 0
-29 -363 0
-28 -363 0
-25 -363 0
29 28 25 363 0
363 -365 0
26 -364 0
27 -364 0
30 -364 0
-26 -27 -30 364 0
364 -365 0
-363 -364 365 0
-365 366 0
359 362 365 -366 0
366 -380 0
2 -368 0
359 -368 0
-2 -359 368 0
-368 377 0
5 -371 0
362 -371 0
-5 -362 371 0
-371 377 0
8 -374 0
365 -374 0
-8 -365 374 0
-374 377 0
368 371 374 -377 0
377 -380 0
-366 -377 380 0
380 382 0
366 -379 0
1 -367 0
359 -367 0
-1 -359 367 0
-367 376 0
4 -370 0
362 -370 0
-4 -362 370 0
-370 376 0
7 -373 0
365 -373 0
-7 -365 373 0
-373 376 0
367 370 373 -376 0
376 -379 0
-366 -376 379 0
379 382 0
-380 -379 -382 0
382 -386 0
-379 383 0
-380 383 0
379 380 -383 0
383 384 0
366 -381 0
3 -369 0
359 -369 0
-3 -359 369 0
-369 378 0
6 -372 0
362 -372 0
-6 -362 372 0
-372 378 0
9 -375 0
365 -375 0
-9 -365 375 0
-375 378 0
369 372 375 -378 0
378 -381 0
-366 -378 381 0
381 384 0
-383 -381 -384 0
384 -386 0
-381 385 0
-383 385 0
381 383 -385 0
385 -386 0
-382 -384 -385 386 0
11 -393 0
-376 -387 0
366 -387 0
387 -390 0
-377 -388 0
366 -388 0
388 -390 0
-378 -389 0
366 -389 0
389 -390 0
385 390 -391 0
391 -393 0
-386 380 -396 0
386 393 -396 0
380 393 -396 0
396 -405 0
12 -404 0
10 -392 0
391 -392 0
-386 379 -395 0
386 392 -395 0
379 392 -395 0
395 -404 0
11 -403 0
12 -394 0
391 -394 0
-386 381 -397 0
386 394 -397 0
381 394 -397 0
397 -403 0
11 -401 0
395 -401 0
10 -400 0
397 -400 0
10 -399 0
396 -399 0
405 404 403 401 400 399 407 0
-18 -315 0
-16 -315 0
-13 -315 0
18 16 13 315 0
315 -317 0
14 -316 0
15 -316 0
17 -316 0
-14 -15 -17 316 0
316 -317 0
-315 -316 317 0
-317 324 0
-24 -318 0
-22 -318 0
-19 -318 0
24 22 19 318 0
318 -320 0
20 -319 0
21 -319 0
23 -319 0
-20 -21 -23 319 0
319 -320 0
-318 -319 320 0
-320 324 0
-30 -321 0
-28 -321 0
-25 -321 0
30 28 25 321 0
321 -323 0
26 -322 0
27 -322 0
29 -322 0
-26 -27 -29 322 0
322 -323 0
-321 -322 323 0
-323 324 0
317 320 323 -324 0
324 -338 0
2 -326 0
317 -326 0
-2 -317 326 0
-326 335 0
5 -329 0
320 -329 0
-5 -320 329 0
-329 335 0
8 -332 0
323 -332 0
-8 -323 332 0
-332 335 0
326 329 332 -335 0
335 -338 0
-324 -335 338 0
338 340 0
324 -337 0
1 -325 0
317 -325 0
-1 -317 325 0
-325 334 0
4 -328 0
320 -328 0
-4 -320 328 0
-328 334 0
7 -331 0
323 -331 0
-7 -323 331 0
-331 334 0
325 328 331 -334 0
334 -337 0
-324 -334 337 0
337 340 0
-338 -337 -340 0
340 -344 0
-337 341 0
-338 341 0
337 338 -341 0
341 342 0
324 -339 0
3 -327 0
317 -327 0
-3 -317 327 0
-327 336 0
6 -330 0
320 -330 0
-6 -320 330 0
-330 336 0
9 -333 0
323 -333 0
-9 -323 333 0
-333 336 0
327 330 333 -336 0
336 -339 0
-324 -336 339 0
339 342 0
-341 -339 -342 0
342 -344 0
-339 343 0
-341 343 0
339 341 -343 0
343 -344 0
-340 -342 -343 344 0
12 -352 0
-334 -345 0
324 -345 0
345 -348 0
-335 -346 0
324 -346 0
346 -348 0
-336 -347 0
324 -347 0
347 -348 0
343 348 -349 0
349 -352 0
-344 339 -355 0
344 352 -355 0
339 352 -355 0
11 -351 0
349 -351 0
-344 338 -354 0
344 351 -354 0
338 351 -354 0
355 354 356 0
12 -312 0
-17 -264 0
-15 -264 0
-14 -264 0
17 15 14 264 0
264 -266 0
13 -265 0
16 -265 0
18 -265 0
-13 -16 -18 265 0
265 -266 0
-264 -265 266 0
-266 273 0
-23 -267 0
-21 -267 0
-20 -267 0
23 21 20 267 0
267 -269 0
19 -268 0
22 -268 0
24 -268 0
-19 -22 -24 268 0
268 -269 0
-267 -268 269 0
-269 273 0
-29 -270 0
-27 -270 0
-26 -270 0
29 27 26 270 0
270 -272 0
25 -271 0
28 -271 0
30 -271 0
-25 -28 -30 271 0
271 -272 0
-270 -271 272 0
-272 273 0
266 269 272 -273 0
273 -287 0
2 -275 0
266 -275 0
-2 -266 275 0
-275 284 0
5 -278 0
269 -278 0
-5 -269 278 0
-278 284 0
8 -281 0
272 -281 0
-8 -272 281 0
-281 284 0
275 278 281 -284 0
284 -287 0
-273 -284 287 0
287 289 0
273 -286 0
1 -274 0
266 -274 0
-1 -266 274 0
-274 283 0
4 -277 0
269 -277 0
-4 -269 277 0
-277 283 0
7 -280 0
272 -280 0
-7 -272 280 0
-280 283 0
274 277 280 -283 0
283 -286 0
-273 -283 286 0
286 289 0
-287 -286 -289 0
289 -293 0
-286 290 0
-287 290 0
286 287 -290 0
290 291 0
273 -288 0
3 -276 0
266 -276 0
-3 -266 276 0
-276 285 0
6 -279 0
269 -279 0
-6 -269 279 0
-279 285 0
9 -282 0
272 -282 0
-9 -272 282 0
-282 285 0
276 279 282 -285 0
285 -288 0
-273 -285 288 0
288 291 0
-290 -288 -291 0
291 -293 0
-288 292 0
-290 292 0
288 290 -292 0
292 -293 0
-289 -291 -292 293 0
11 -300 0
-283 -294 0
273 -294 0
294 -297 0
-284 -295 0
273 -295 0
295 -297 0
-285 -296 0
273 -296 0
296 -297 0
292 297 -298 0
298 -300 0
-293 287 -303 0
293 300 -303 0
287 300 -303 0
303 -312 0
12 -311 0
10 -299 0
298 -299 0
-293 286 -302 0
293 299 -302 0
286 299 -302 0
302 -311 0
11 -310 0
12 -301 0
298 -301 0
-293 288 -304 0
293 301 -304 0
288 301 -304 0
304 -310 0
11 -308 0
302 -308 0
10 -307 0
304 -307 0
10 -306 0
303 -306 0
312 311 310 308 307 306 314 0
-18 -222 0
-15 -222 0
-14 -222 0
18 15 14 222 0
222 -224 0
13 -223 0
16 -223 0
17 -223 0
-13 -16 -17 223 0
223 -224 0
-222 -223 224 0
-224 231 0
-24 -225 0
-21 -225 0
-20 -225 0
24 21 20 225 0
225 -227 0
19 -226 0
22 -226 0
23 -226 0
-19 -22 -23 226 0
226 -227 0
-225 -226 227 0
-227 231 0
-30 -228 0
-27 -228 0
-26 -228 0
30 27 26 228 0
228 -230 0
25 -229 0
28 -229 0
29 -229 0
-25 -28 -29 229 0
229 -230 0
-228 -229 230 0
-230 231 0
224 227 230 -231 0
231 -245 0
2 -233 0
224 -233 0
-2 -224 233 0
-233 242 0
5 -236 0
227 -236 0
-5 -227 236 0
-236 242 0
8 -239 0
230 -239 0
-8 -230 239 0
-239 242 0
233 236 239 -242 0
242 -245 0
-231 -242 245 0
245 247 0
231 -244 0
1 -232 0
224 -232 0
-1 -224 232 0
-232 241 0
4 -235 0
227 -235 0
-4 -227 235 0
-235 241 0
7 -238 0
230 -238 0
-7 -230 238 0
-238 241 0
232 235 238 -241 0
241 -244 0
-231 -241 244 0
244 247 0
-245 -244 -247 0
247 -251 0
-244 248 0
-245 248 0
244 245 -248 0
248 249 0
231 -246 0
3 -234 0
224 -234 0
-3 -224 234 0
-234 243 0
6 -237 0
227 -237 0
-6 -227 237 0
-237 243 0
9 -240 0
230 -240 0
-9 -230 240 0
-240 243 0
234 237 240 -243 0
243 -246 0
-231 -243 246 0
246 249 0
-248 -246 -249 0
249 -251 0
-246 250 0
-248 250 0
246 248 -250 0
250 -251 0
-247 -249 -250 251 0
12 -259 0
-241 -252 0
231 -252 0
252 -255 0
-242 -253 0
231 -253 0
253 -255 0
-243 -254 0
231 -254 0
254 -255 0
250 255 -256 0
256 -259 0
-251 246 -262 0
251 259 -262 0
246 259 -262 0
10 -257 0
256 -257 0
-251 244 -260 0
251 257 -260 0
244 257 -260 0
262 260 263 0
-17 -180 0
-16 -180 0
-14 -180 0
17 16 14 180 0
180 -182 0
13 -181 0
15 -181 0
18 -181 0
-13 -15 -18 181 0
181 -182 0
-180 -181 182 0
-182 189 0
-23 -183 0
-22 -183 0
-20 -183 0
23 22 20 183 0
183 -185 0
19 -184 0
21 -184 0
24 -184 0
-19 -21 -24 184 0
184 -185 0
-183 -184 185 0
-185 189 0
-29 -186 0
-28 -186 0
-26 -186 0
29 28 26 186 0
186 -188 0
25 -187 0
27 -187 0
30 -187 0
-25 -27 -30 187 0
187 -188 0
-186 -187 188 0
-188 189 0
182 185 188 -189 0
189 -203 0
2 -191 0
182 -191 0
-2 -182 191 0
-191 200 0
5 -194 0
185 -194 0
-5 -185 194 0
-194 200 0
8 -197 0
188 -197 0
-8 -188 197 0
-197 200 0
191 194 197 -200 0
200 -203 0
-189 -200 203 0
203 205 0
189 -202 0
1 -190 0
182 -190 0
-1 -182 190 0
-190 199 0
4 -193 0
185 -193 0
-4 -185 193 0
-193 199 0
7 -196 0
188 -196 0
-7 -188 196 0
-196 199 0
190 193 196 -199 0
199 -202 0
-189 -199 202 0
202 205 0
-203 -202 -205 0
205 -209 0
-202 206 0
-203 206 0
202 203 -206 0
206 207 0
189 -204 0
3 -192 0
182 -192 0
-3 -182 192 0
-192 201 0
6 -195 0
185 -195 0
-6 -185 195 0
-195 201 0
9 -198 0
188 -198 0
-9 -188 198 0
-198 201 0
192 195 198 -201 0
201 -204 0
-189 -201 204 0
204 207 0
-206 -204 -207 0
207 -209 0
-204 208 0
-206 208 0
204 206 -208 0
208 -209 0
-205 -207 -208 209 0
11 -216 0
-199 -210 0
189 -210 0
210 -213 0
-200 -211 0
189 -211 0
211 -213 0
-201 -212 0
189 -212 0
212 -213 0
208 213 -214 0
214 -216 0
-209 203 -219 0
209 216 -219 0
203 216 -219 0
10 -215 0
214 -215 0
-209 202 -218 0
209 215 -218 0
202 215 -218 0
219 218 221 0
12 -177 0
-18 -129 0
-16 -129 0
-14 -129 0
18 16 14 129 0
129 -131 0
13 -130 0
15 -130 0
17 -130 0
-13 -15 -17 130 0
130 -131 0
-129 -130 131 0
-131 138 0
-24 -132 0
-22 -132 0
-20 -132 0
24 22 20 132 0
132 -134 0
19 -133 0
21 -133 0
23 -133 0
-19 -21 -23 133 0
133 -134 0
-132 -133 134 0
-134 138 0
-30 -135 0
-28 -135 0
-26 -135 0
30 28 26 135 0
135 -137 0
25 -136 0
27 -136 0
29 -136 0
-25 -27 -29 136 0
136 -137 0
-135 -136 137 0
-137 138 0
131 134 137 -138 0
138 -152 0
2 -140 0
131 -140 0
-2 -131 140 0
-140 149 0
5 -143 0
134 -143 0
-5 -134 143 0
-143 149 0
8 -146 0
137 -146 0
-8 -137 146 0
-146 149 0
140 143 146 -149 0
149 -152 0
-138 -149 152 0
152 154 0
138 -151 0
1 -139 0
131 -139 0
-1 -131 139 0
-139 148 0
4 -142 0
134 -142 0
-4 -134 142 0
-142 148 0
7 -145 0
137 -145 0
-7 -137 145 0
-145 148 0
139 142 145 -148 0
148 -151 0
-138 -148 151 0
151 154 0
-152 -151 -154 0
154 -158 0
-151 155 0
-152 155 0
151 152 -155 0
155 156 0
138 -153 0
3 -141 0
131 -141 0
-3 -131 141 0
-141 150 0
6 -144 0
134 -144 0
-6 -134 144 0
-144 150 0
9 -147 0
137 -147 0
-9 -137 147 0
-147 150 0
141 144 147 -150 0
150 -153 0
-138 -150 153 0
153 156 0
-155 -153 -156 0
156 -158 0
-153 157 0
-155 157 0
153 155 -157 0
157 -158 0
-154 -156 -157 158 0
11 -165 0
-148 -159 0
138 -159 0
159 -162 0
-149 -160 0
138 -160 0
160 -162 0
-150 -161 0
138 -161 0
161 -162 0
157 162 -163 0
163 -165 0
-158 152 -168 0
158 165 -168 0
152 165 -168 0
168 -177 0
12 -176 0
10 -164 0
163 -164 0
-158 151 -167 0
158 164 -167 0
151 164 -167 0
167 -176 0
11 -175 0
12 -166 0
163 -166 0
-158 153 -169 0
158 166 -169 0
153 166 -169 0
169 -175 0
11 -173 0
167 -173 0
10 -172 0
169 -172 0
10 -171 0
168 -171 0
177 176 175 173 172 171 179 0
-509 -458 -407 -356 -314 -263 -221 -179 -510 0
35 0
63 0
109 0
128 0
510 0
